(set-logic QF_S)
(declare-fun var0 () String)
(declare-fun var1 () String)
(declare-fun var2 () String)
(declare-fun var3 () Int)
(declare-fun var4 () Int)
(declare-fun var5 () String)
(declare-fun var6 () Int)
(declare-fun var7 () Int)
(assert (str.contains var0 var1))
(assert (str.prefixof (str.substr var2 var3 var4) (str.substr var5 var6 var7)))
(assert (str.prefixof (str.at var1 var3) (str.at var5 var7)))
(assert (str.suffixof var2 ":x'{%:"))
(check-sat)